c CNF file generated from BLIF2CNF script.
c Original BLIF file was blif/train11.blif
p cnf 50 133
-1 -3 0
3 1  0
-3 2 0
-2 3  0
-4 -6 0
6 4  0
-6 5 0
-5 6  0
-7 -9 0
9 7  0
-9 8 0
-8 9  0
-10 -12 0
12 10  0
-12 11 0
-11 12  0
-13 -15 0
15 13  0
-15 14 0
-14 15  0
16 -21 0
-17 -21 0
-18 -21 0
-19 -21 0
21 -16 17 18 19  0
-21 20 0
-20 21  0
22 -25 0
23 -25 0
19 -25 0
25 -22 -23 -19  0
-25 24 0
-24 25  0
22 -27 0
-16 -27 0
23 -27 0
27 -22 16 -23  0
-27 26 0
-26 27  0
-22 -29 0
-16 -29 0
23 -29 0
-19 -29 0
29 22 16 -23 19  0
-29 28 0
-28 29  0
22 -31 0
-23 -31 0
-19 -31 0
31 -22 23 19  0
-31 30 0
-30 31  0
-22 -33 0
17 -33 0
23 -33 0
33 22 -17 -23  0
-33 32 0
-32 33  0
22 -35 0
-17 -35 0
23 -35 0
35 -22 17 -23  0
-35 34 0
-34 35  0
-22 -37 0
-16 -37 0
17 -37 0
37 22 16 -17  0
-37 36 0
-36 37  0
22 -39 0
16 -39 0
17 -39 0
39 -22 -16 -17  0
-39 38 0
-38 39  0
16 -41 0
18 -41 0
41 -16 -18  0
-41 40 0
-40 41  0
22 -43 0
-16 -43 0
19 -43 0
43 -22 16 -19  0
-43 42 0
-42 43  0
16 -45 0
19 -45 0
45 -16 -19  0
-45 44 0
-44 45  0
-30 -46 0
-36 -46 0
-38 -46 0
46 30 36 38  0
-46 4 0
-4 46  0
-26 -47 0
-28 -47 0
-32 -47 0
-40 -47 0
-42 -47 0
47 26 28 32 40 42  0
-47 7 0
-7 47  0
-20 -48 0
-24 -48 0
-28 -48 0
-38 -48 0
48 20 24 28 38  0
-48 10 0
-10 48  0
-34 -49 0
-36 -49 0
-42 -49 0
-44 -49 0
49 34 36 42 44  0
-49 13 0
-13 49  0
-20 -50 0
-28 -50 0
-30 -50 0
-32 -50 0
-34 -50 0
-36 -50 0
-38 -50 0
-40 -50 0
-42 -50 0
-44 -50 0
50 20 28 30 32 34 36 38 40 42 44  0
-50 1 0
-1 50  0
